(set-info :smt-lib-version 2.6)
(set-logic QF_UFLRA)
(set-info :source |
MathSat group

|)
(set-info :category "random")
(set-info :status sat)
(declare-fun x0 () Real)
(declare-fun x1 () Real)
(declare-fun x2 () Real)
(declare-fun x3 () Real)
(declare-fun x4 () Real)
(declare-fun x5 () Real)
(declare-fun x6 () Real)
(declare-fun x7 () Real)
(declare-fun x8 () Real)
(declare-fun x9 () Real)
(declare-fun x10 () Real)
(declare-fun x11 () Real)
(declare-fun x12 () Real)
(declare-fun x13 () Real)
(declare-fun x14 () Real)
(declare-fun x15 () Real)
(declare-fun x16 () Real)
(declare-fun x17 () Real)
(declare-fun x18 () Real)
(declare-fun x19 () Real)
(declare-fun x20 () Real)
(declare-fun x21 () Real)
(declare-fun x22 () Real)
(declare-fun x23 () Real)
(declare-fun x24 () Real)
(declare-fun x25 () Real)
(declare-fun x26 () Real)
(declare-fun x27 () Real)
(declare-fun x28 () Real)
(declare-fun x29 () Real)
(declare-fun x30 () Real)
(declare-fun x31 () Real)
(declare-fun x32 () Real)
(declare-fun x33 () Real)
(declare-fun x34 () Real)
(declare-fun x35 () Real)
(declare-fun x36 () Real)
(declare-fun x37 () Real)
(declare-fun x38 () Real)
(declare-fun x39 () Real)
(declare-fun x40 () Real)
(declare-fun x41 () Real)
(declare-fun x42 () Real)
(declare-fun x43 () Real)
(declare-fun x44 () Real)
(declare-fun x45 () Real)
(declare-fun x46 () Real)
(declare-fun x47 () Real)
(declare-fun x48 () Real)
(declare-fun x49 () Real)
(declare-fun f0_1 (Real) Real)
(declare-fun f0_2 (Real Real) Real)
(declare-fun f0_3 (Real Real Real) Real)
(declare-fun f0_4 (Real Real Real Real) Real)
(declare-fun P0 () Bool)
(declare-fun P1 () Bool)
(declare-fun P2 () Bool)
(declare-fun P3 () Bool)
(declare-fun P4 () Bool)
(declare-fun P5 () Bool)
(declare-fun P6 () Bool)
(declare-fun P7 () Bool)
(declare-fun P8 () Bool)
(declare-fun P9 () Bool)
(declare-fun P10 () Bool)
(declare-fun P11 () Bool)
(declare-fun P12 () Bool)
(declare-fun P13 () Bool)
(declare-fun P14 () Bool)
(declare-fun P15 () Bool)
(declare-fun P16 () Bool)
(declare-fun P17 () Bool)
(declare-fun P18 () Bool)
(declare-fun P19 () Bool)
(declare-fun P20 () Bool)
(declare-fun P21 () Bool)
(declare-fun P22 () Bool)
(declare-fun P23 () Bool)
(declare-fun P24 () Bool)
(declare-fun P25 () Bool)
(declare-fun P26 () Bool)
(declare-fun P27 () Bool)
(declare-fun P28 () Bool)
(declare-fun P29 () Bool)
(declare-fun P30 () Bool)
(declare-fun P31 () Bool)
(declare-fun P32 () Bool)
(declare-fun P33 () Bool)
(declare-fun P34 () Bool)
(declare-fun P35 () Bool)
(declare-fun P36 () Bool)
(declare-fun P37 () Bool)
(declare-fun P38 () Bool)
(declare-fun P39 () Bool)
(declare-fun P40 () Bool)
(declare-fun P41 () Bool)
(declare-fun P42 () Bool)
(declare-fun P43 () Bool)
(declare-fun P44 () Bool)
(declare-fun P45 () Bool)
(declare-fun P46 () Bool)
(declare-fun P47 () Bool)
(declare-fun P48 () Bool)
(declare-fun P49 () Bool)
(assert (let ((?v_45 (* 6 x24)) (?v_142 (* 16 x18)) (?v_4 (* 10 x36)) (?v_96 (* 13 x41)) (?v_18 (< (- (- (* 6 x27) (* 11 x29)) (* 27 x26)) 8)) (?v_44 (* 5 x37)) (?v_161 (<= (- (- (* 16 x42) (* 13 x7)) (* 5 x21)) 14)) (?v_63 (= (f0_2 x12 x7) (f0_1 x47))) (?v_253 (distinct x28 x13)) (?v_0 (distinct x10 x5)) (?v_49 (f0_1 x33))) (let ((?v_110 (= ?v_49 x38)) (?v_59 (= (f0_2 x38 x4) (f0_1 x36))) (?v_31 (= (f0_1 x13) (f0_2 x36 x48))) (?v_133 (= (f0_1 x1) (f0_2 x29 x0))) (?v_192 (distinct (f0_2 x36 x11) x34)) (?v_20 (= (f0_2 x19 x36) (f0_2 x9 x24))) (?v_168 (distinct x16 (f0_1 x16))) (?v_56 (f0_1 x15)) (?v_3 (f0_1 x18))) (let ((?v_13 (distinct ?v_56 ?v_3)) (?v_80 (distinct (f0_2 x10 x23) (f0_2 x5 x32))) (?v_68 (distinct ?v_56 (f0_1 x8))) (?v_204 (distinct (f0_2 x43 x4) x19)) (?v_134 (= x26 (f0_2 x17 x40))) (?v_43 (= x32 (f0_1 x17))) (?v_221 (distinct (f0_2 x3 x39) (f0_1 x10))) (?v_17 (distinct x28 (f0_1 x26))) (?v_69 (distinct (f0_1 x7) x4)) (?v_30 (f0_1 x31))) (let ((?v_38 (= ?v_30 (f0_2 x45 x28))) (?v_121 (= (f0_1 x49) (f0_1 x14))) (?v_22 (= (f0_1 x29) x6)) (?v_249 (distinct ?v_49 (f0_2 x16 x47))) (?v_37 (distinct (f0_1 x11) x15)) (?v_160 (= (f0_2 x30 x1) x6)) (?v_181 (= (f0_2 x36 x27) (f0_2 x12 x0))) (?v_62 (distinct (f0_2 x35 x19) (f0_2 x16 x15))) (?v_120 (= (f0_1 x2) x14)) (?v_21 (= (f0_2 x6 x29) (f0_2 x8 x26))) (?v_14 (= x43 (f0_2 x17 x33))) (?v_39 (f0_1 x42))) (let ((?v_55 (= x5 ?v_39)) (?v_224 (distinct x1 (f0_2 x10 x37))) (?v_1 (distinct (f0_1 x30) (f0_1 x41))) (?v_27 (f0_1 x21))) (let ((?v_185 (= (f0_2 x46 x17) ?v_27)) (?v_48 (distinct x33 x28)) (?v_223 (= x46 x25)) (?v_50 (distinct (f0_2 x45 x8) x22)) (?v_36 (= (f0_2 x45 x11) (f0_2 x2 x43))) (?v_42 (= ?v_3 x44)) (?v_138 (distinct x2 ?v_27)) (?v_137 (distinct (f0_1 x28) x28)) (?v_191 (distinct (f0_2 x17 x48) (f0_2 x47 x22))) (?v_19 (= (f0_2 x48 x9) ?v_30)) (?v_6 (= ?v_39 x16)) (?v_61 (distinct x21 (f0_1 x46))) (?v_94 (distinct x4 x13)) (?v_132 (= (f0_1 x3) (f0_1 x6))) (?v_32 (= (f0_2 x5 x27) (f0_1 x12))) (?v_15 (= (f0_1 x25) (f0_2 x29 x24))) (?v_9 (= (f0_1 x27) (f0_2 x20 x20))) (?v_25 (not P35)) (?v_92 (not P44)) (?v_2 (not ?v_0)) (?v_119 (not P26)) (?v_24 (not ?v_13)) (?v_148 (not P45))) (let ((?v_5 (not ?v_61)) (?v_167 (not P2)) (?v_129 (not P42)) (?v_35 (not P11)) (?v_23 (not P43)) (?v_103 (not ?v_32)) (?v_84 (not P0)) (?v_88 (not ?v_22)) (?v_7 (not ?v_192)) (?v_10 (not P16)) (?v_8 (not P36)) (?v_141 (not ?v_42)) (?v_81 (not ?v_9)) (?v_180 (not ?v_15)) (?v_86 (not ?v_6)) (?v_89 (not ?v_204)) (?v_130 (not ?v_69)) (?v_26 (not P4)) (?v_164 (not P49)) (?v_175 (not P21)) (?v_118 (not P7)) (?v_220 (not ?v_110)) (?v_127 (not P23)) (?v_217 (not ?v_18)) (?v_75 (not ?v_19)) (?v_215 (not ?v_20)) (?v_140 (not ?v_160)) (?v_188 (not P19)) (?v_189 (not ?v_17)) (?v_149 (not ?v_253)) (?v_152 (not ?v_80)) (?v_41 (not ?v_48)) (?v_182 (not ?v_36)) (?v_165 (not ?v_38)) (?v_139 (not P20)) (?v_64 (not ?v_191)) (?v_113 (not P22)) (?v_233 (not ?v_37)) (?v_172 (not P32)) (?v_128 (not ?v_55)) (?v_78 (not P28)) (?v_232 (not P41)) (?v_176 (not ?v_134)) (?v_179 (not P31)) (?v_150 (not P46)) (?v_67 (not P13)) (?v_227 (not P3)) (?v_100 (not ?v_50)) (?v_57 (not ?v_59)) (?v_70 (not ?v_62)) (?v_123 (not ?v_63)) (?v_193 (not ?v_68)) (?v_256 (or P15 ?v_69)) (?v_74 (not P40)) (?v_241 (not ?v_221))) (let ((?v_258 (or ?v_70 ?v_241)) (?v_206 (not ?v_31)) (?v_169 (not ?v_120)) (?v_111 (not P30)) (?v_240 (not ?v_132)) (?v_93 (not P9)) (?v_170 (not ?v_94)) (?v_108 (not P24)) (?v_202 (not P5)) (?v_98 (not P37)) (?v_250 (not P1)) (?v_135 (not P38)) (?v_248 (not P17)) (?v_190 (not ?v_137)) (?v_124 (not ?v_121)) (?v_153 (not P6)) (?v_174 (not ?v_21)) (?v_226 (not ?v_133)) (?v_171 (not P33)) (?v_147 (not P14)) (?v_198 (not P12)) (?v_162 (not ?v_14)) (?v_246 (not ?v_138)) (?v_211 (not ?v_1)) (?v_212 (not P48)) (?v_205 (not P39)) (?v_210 (not P18)) (?v_200 (not ?v_181)) (?v_231 (not P25)) (?v_194 (not ?v_43)) (?v_207 (not P8)) (?v_230 (not P10)) (?v_214 (not ?v_185)) (?v_225 (or ?v_181 ?v_0)) (?v_238 (not P34)) (?v_247 (not ?v_161)) (?v_259 (not ?v_223)) (?v_234 (not ?v_224)) (?v_244 (not P15)) (?v_254 (not P27)) (?v_251 (not ?v_249)) (?v_66 (<= (- (- ?v_44 0) x35) 5))) (let ((?v_52 (not ?v_66)) (?v_90 (< (- (* 5 x5) (* 22 x29)) 23)) (?v_173 (<= (+ (- (* 6 x28) 0) (* 15 x48)) 21))) (let ((?v_33 (not ?v_173)) (?v_99 (not ?v_90)) (?v_208 (= (- (- 0 (* 6 x9)) (* 9 x41)) 24))) (let ((?v_199 (not ?v_208)) (?v_116 (<= (+ (- (* 27 x46) x11) (* 24 x24)) 8))) (let ((?v_245 (not ?v_116)) (?v_105 (= (+ (* 13 x36) (* 4 x45) (* 8 x39)) (- 25)))) (let ((?v_71 (not ?v_105)) (?v_131 (< (+ (- (* 21 x3) (* 5 x4)) (* 16 x45)) (- 16)))) (let ((?v_102 (not ?v_131)) (?v_60 (distinct (- (* (- 23) x12) ?v_4) (- 23))) (?v_159 (= (+ (- (* 22 x42) (* 16 x32)) (* 2 x42)) (- 18)))) (let ((?v_151 (not ?v_159)) (?v_12 (<= (+ (- (* 9 x37) (* 7 x10)) ?v_45) (- 3))) (?v_51 (<= (- (- (* (- 23) x16) 0) (* 27 x23)) 15)) (?v_11 (< (+ (* (- 27) x17) (* 21 x31) x48) 19)) (?v_187 (<= (- (+ (* 21 x43) ?v_4) (* 19 x38)) (- 7)))) (let ((?v_77 (not ?v_187)) (?v_82 (<= (+ (* (- 17) x44) (* 6 x11) (* 13 x49)) (- 4))) (?v_16 (= (+ (* 21 x28) (* 23 x9)) (- 15))) (?v_79 (< (- (+ (* (- 5) x28) (* 22 x36)) (* 23 x1)) (- 12))) (?v_166 (<= (- (- (* 25 x26) (* 11 x9)) 0) (- 11)))) (let ((?v_28 (not ?v_166)) (?v_197 (< (- (- (* (- 25) x25) (* 17 x33)) (* 16 x8)) 20))) (let ((?v_53 (not ?v_197)) (?v_228 (<= (- (- (* 7 x28) (* 21 x25)) (* 4 x22)) (- 13)))) (let ((?v_196 (not ?v_228)) (?v_58 (< (+ (- (* 20 x48) (* 9 x39)) (* 26 x5)) (- 25))) (?v_29 (= (- (- (* 11 x44) 0) (* 20 x21)) (- 20))) (?v_72 (< (+ (- (* (- 11) x0) (* 4 x27)) (* 12 x6)) (- 24)))) (let ((?v_122 (not ?v_72)) (?v_101 (<= (+ (- (* (- 20) x16) (* 20 x22)) (* 17 x22)) (- 6))) (?v_112 (not ?v_12)) (?v_46 (< (- (- (* (- 23) x5) (* 19 x3)) (* 15 x14)) (- 13)))) (let ((?v_157 (not ?v_46)) (?v_115 (not ?v_16)) (?v_47 (< (- (- (* (- 24) x39) (* 19 x2)) (* 4 x48)) 12)) (?v_144 (< (+ (- 0 ?v_142) (* 15 x16)) (- 15)))) (let ((?v_34 (not ?v_144)) (?v_54 (<= (+ (* 21 x18) (* 15 x17) (* 19 x9)) (- 7))) (?v_104 (< (+ (- (* (- 14) x46) (* 20 x36)) (* 7 x32)) (- 16)))) (let ((?v_125 (not ?v_104)) (?v_40 (< (+ (- 0 (* 26 x14)) (* 7 x11)) (- 28))) (?v_76 (<= (* 24 x11) (- 16))) (?v_97 (< (- (- (* (- 12) x33) (* 15 x41)) 0) (- 25)))) (let ((?v_158 (not ?v_40)) (?v_219 (< (- (- (* (- 16) x10) 0) ?v_96) 7))) (let ((?v_95 (not ?v_219)) (?v_87 (< (+ (* 12 x21) (* 26 x37) ?v_44) (- 13)))) (let ((?v_91 (not ?v_87)) (?v_107 (distinct (+ (- (* (- 11) x37) ?v_45) (* 25 x1)) 17))) (let ((?v_106 (not ?v_107)) (?v_73 (<= (+ (* (- 25) x23) (* 21 x23) (* 12 x45)) 8))) (let ((?v_243 (not ?v_73)) (?v_216 (not ?v_58)) (?v_109 (<= (+ (- (* (- 22) x14) (* 8 x47)) (* 10 x44)) (- 26)))) (let ((?v_114 (not ?v_109)) (?v_65 (= (- (- (* (- 24) x38) (* 3 x14)) (* 20 x29)) (- 21)))) (let ((?v_83 (not ?v_65)) (?v_126 (distinct (- (* 14 x11) (* 9 x47)) (- 7)))) (let ((?v_218 (not ?v_126)) (?v_85 (not ?v_76)) (?v_201 (not ?v_79)) (?v_117 (<= (+ (- (* (- 25) x48) (* 5 x17)) (* 20 x14)) 10))) (let ((?v_163 (not ?v_117)) (?v_195 (distinct (+ (- (* 20 x4) ?v_96) (* 16 x43)) (- 28))) (?v_146 (= (- (+ (* (- 25) x3) (* 23 x10)) (* 5 x20)) (- 5)))) (let ((?v_143 (not ?v_146)) (?v_145 (distinct (+ (* (- 6) x24) (* 26 x42) (* 12 x39)) 29)) (?v_213 (not ?v_60)) (?v_136 (<= (- (+ (* 18 x44) (* 25 x10)) (* 22 x38)) (- 4))) (?v_155 (< (- (* (- 27) x18) (* 3 x45)) 24)) (?v_183 (not ?v_101)) (?v_178 (<= (- (+ (* (- 3) x47) (* 21 x27)) (* 10 x18)) 0))) (let ((?v_154 (not ?v_136)) (?v_203 (<= (+ (* (- 17) x40) (* 6 x36) (* 15 x5)) 6)) (?v_229 (<= (- (+ (* (- 4) x7) (* 13 x48)) ?v_142) (- 22))) (?v_156 (not ?v_54)) (?v_184 (not ?v_155)) (?v_237 (< (+ (- (* 15 x23) (* 23 x25)) (* 27 x11)) (- 15)))) (let ((?v_236 (not ?v_237)) (?v_186 (not ?v_29)) (?v_177 (not ?v_51)) (?v_235 (not ?v_47)) (?v_252 (not ?v_178)) (?v_209 (not ?v_11)) (?v_242 (not ?v_97)) (?v_239 (not ?v_82)) (?v_222 (not ?v_145)) (?v_255 (not ?v_195)) (?v_257 (not ?v_203))) (and (and (and (and (and (and (and (and (and (and (and (and (and (and (and (and (and (and (and (and (and (and (and (and (and (and (and (and (and (and (and (and (and (and (and (and (and (and (and (and (and (and (and (and (and (and (and (and (and (and (and (and (and (and (and (and (and (and (and (and (and (and (and (and (and (and (and (and (and (and (and (and (and (and (and (and (and (and (and (and (and (and (and (and (and (and (and (and (and (and (and (and (and (and (and (and (and (and (and (and (and (and (and (and (and (and (and (and (and (and (and (and (and (and (and (and (and (and (and (and (and (and (and (and (and (and (and (and (and (and (and (and (and (and (and (and (and (and (and (and (and (and (and (and (and (and (and (and (and (and (and (and (and (and (and (and (and (and (and (and (and (and (and (and (and (and (and (and (and (and (and (and (and (and (and (and (and (and (and (and (and (and (and (and (and (and (and (and (and (and (and (and (and (and (and (and (and (and (and (and (and (and (and (and (and (and (and (and (and (and (and (and (and (and (and (and (and (and (and (and (and (and (and (and (and (and (and (and (and (and (and (and (and (and (and (and (and (and (and (and (and (and (and (and (and (and (and (and (and (and (and (and (and (and (and (and (and (and (and (and (and (and (and (and (and (and (and (and (and (and (and (and (and (and (and (and (and (and (and (and (and (and (and (and (and (and (and (and (and (and (and (and (and (and (and (and (and (and (and (and (and (and (and (and (and (and (and (and (and (and (and (and (and (and (and (and (and (and (and (and (and (and (and (and (and (and (and (and (and (and (and (and (and (and (and (and (and (and (and (and (and (and (and (and (and (and (and (and (and (and (and (and (and (and (and (and (and (and (and (and (and (and (and (and (and (and (and (and (and (and (and (and (and (and (and (and (and (and (and (and (and (and (and (and (and (and (and (and (and (and (and (and (and (and (and (and (and (and (and (and (and (and (and (and (and (and (and (and (and (and (and (and (and (and (and (and (and (and (and (and (and (and (and (and (and (and (and (and (and (and (and (and (and (and (and (and (and (and (and (and (and (and (and (and (and (and (and (and (and (and (and (and (and (and (and (and (and (and (and (and (and (and (and (and (and (and (and (and (and (and (and (and (and (and (and (and (and (and (and (and (and (and (and (and (and (and (and (and (and (and (and (and (and (and (and (and (and (and (and (and (and (and (and (and (and (and (and (and (and (and (and (and (and (and (and (and (and (and (and (and (and (and (and (and (and (and (and (and (and (and (and (and (and (and (and (and (and (and (and (and (and (and (and (and (and (and (and (and (and (and (and (and (and (and (and (and (and (and (and (and (and (and (and (and (and (and (and (and (and (and (and (and (and (and (and (and (and (and (and (and (and (and (and (and (and (and (and (and (and (and (and (and (and (and (and (and (and (and (and (or (or ?v_25 ?v_92) ?v_2) (or (or ?v_1 ?v_119) ?v_24)) (or (or P4 ?v_148) P34)) (or (or ?v_5 ?v_167) ?v_71)) (or (or ?v_102 ?v_20) ?v_17)) (or (or P41 P13) ?v_0)) (or (or ?v_52 ?v_6) ?v_60)) (or (or ?v_90 ?v_129) ?v_35)) (or (or ?v_18 ?v_138) P11)) (or (or ?v_1 ?v_23) ?v_151)) (or (or ?v_103 P39) ?v_62)) (or (or ?v_2 ?v_19) ?v_84)) (or (or P22 ?v_12) ?v_33)) (or (or ?v_88 ?v_7) ?v_10)) (or (or ?v_51 ?v_11) P12)) (or (or ?v_37 ?v_8) ?v_141)) (or (or ?v_43 P49) ?v_77)) (or (or ?v_5 P36) ?v_21)) (or (or ?v_82 ?v_16) ?v_81)) (or (or ?v_180 ?v_86) ?v_89)) (or (or ?v_7 ?v_31) ?v_8)) (or (or ?v_9 ?v_79) ?v_28)) (or (or ?v_10 ?v_130) ?v_26)) (or (or ?v_53 ?v_196) ?v_164)) (or (or ?v_58 ?v_29) ?v_11)) (or (or ?v_122 ?v_101) ?v_112)) (or (or ?v_13 ?v_157) ?v_14)) (or (or ?v_14 ?v_15) ?v_115)) (or (or ?v_47 ?v_175) ?v_15)) (or (or ?v_17 ?v_63) ?v_118)) (or (or ?v_220 ?v_127) P6)) (or (or P13 P13) P46)) (or (or P9 ?v_217) ?v_34)) (or (or ?v_75 P19) P8)) (or (or P3 ?v_215) ?v_21)) (or (or P47 P11) ?v_22)) (or (or ?v_23 ?v_140) ?v_24)) (or (or ?v_25 ?v_8) ?v_54)) (or (or ?v_26 ?v_188) ?v_125)) (or (or ?v_189 P48) ?v_185)) (or (or ?v_149 ?v_152) ?v_41)) (or (or ?v_182 ?v_28) ?v_29)) (or (or P14 ?v_181) ?v_165)) (or (or ?v_31 P16) ?v_32)) (or (or ?v_33 ?v_50) ?v_34)) (or (or ?v_40 ?v_139) ?v_64)) (or (or ?v_12 ?v_35) P36)) (or (or ?v_76 ?v_113) ?v_97)) (or (or ?v_36 ?v_233) ?v_172)) (or (or ?v_38 ?v_14) ?v_128)) (or (or ?v_12 P44) ?v_158)) (or (or P29 ?v_41) P33)) (or (or ?v_1 ?v_42) ?v_95)) (or (or ?v_78 ?v_43) ?v_91)) (or (or ?v_12 ?v_232) ?v_106)) (or (or ?v_176 ?v_179) ?v_46)) (or (or ?v_150 ?v_47) ?v_11)) (or (or ?v_48 ?v_67) ?v_227)) (or (or P7 ?v_249) ?v_100)) (or (or ?v_57 ?v_133) ?v_51)) (or (or ?v_52 ?v_53) ?v_54)) (or (or ?v_243 ?v_55) ?v_68)) (or (or ?v_17 ?v_57) ?v_23)) (or (or ?v_216 ?v_114) ?v_59)) (or (or ?v_60 ?v_61) ?v_70)) (or (or ?v_58 ?v_123) ?v_64)) (or (or P34 ?v_65) ?v_42)) (or (or ?v_26 P10) ?v_83)) (or (or ?v_66 ?v_10) ?v_0)) (or (or ?v_67 P46) ?v_193)) (or ?v_256 ?v_10)) (or (or ?v_218 ?v_74) P25)) (or ?v_258 P4)) (or (or ?v_42 ?v_42) ?v_71)) (or (or ?v_72 ?v_73) P5)) (or (or ?v_74 ?v_75) ?v_85)) (or (or ?v_206 P14) ?v_21)) (or (or ?v_77 ?v_169) ?v_78)) (or (or ?v_201 ?v_80) P34)) (or (or ?v_81 ?v_111) ?v_82)) (or (or P16 ?v_83) P5)) (or (or ?v_224 ?v_33) ?v_84)) (or (or ?v_240 ?v_20) ?v_16)) (or (or ?v_85 ?v_48) ?v_86)) (or (or P21 ?v_87) ?v_93)) (or (or ?v_88 ?v_89) ?v_99)) (or (or ?v_47 P38) ?v_170)) (or (or ?v_121 ?v_91) ?v_46)) (or (or ?v_59 ?v_92) ?v_93)) (or (or ?v_94 ?v_95) ?v_51)) (or (or P47 ?v_163) ?v_91)) (or (or ?v_108 ?v_195) ?v_202)) (or (or ?v_98 ?v_97) ?v_82)) (or (or ?v_55 ?v_143) ?v_168)) (or (or P29 ?v_98) ?v_99)) (or (or ?v_72 ?v_100) ?v_145)) (or (or ?v_101 ?v_102) P33)) (or (or P4 ?v_31) ?v_103)) (or (or ?v_104 ?v_105) ?v_106)) (or (or ?v_107 ?v_25) ?v_250)) (or (or ?v_199 P41) ?v_135)) (or (or ?v_213 ?v_161) ?v_28)) (or (or ?v_108 ?v_29) ?v_109)) (or (or ?v_20 ?v_9) ?v_110)) (or (or ?v_136 ?v_101) P31)) (or (or ?v_1 ?v_28) P2)) (or (or ?v_91 ?v_93) P31)) (or (or ?v_111 ?v_74) P36)) (or (or ?v_60 ?v_116) ?v_52)) (or (or ?v_11 ?v_112) ?v_113)) (or (or ?v_114 ?v_115) ?v_116)) (or (or ?v_117 ?v_97) ?v_68)) (or (or ?v_15 ?v_94) ?v_118)) (or (or ?v_119 ?v_120) ?v_155)) (or (or P7 ?v_248) ?v_190)) (or (or P32 ?v_124) P17)) (or (or ?v_122 ?v_79) ?v_2)) (or (or ?v_70 ?v_16) ?v_63)) (or (or ?v_38 ?v_153) P13)) (or (or ?v_123 ?v_88) P11)) (or (or ?v_57 ?v_60) ?v_183)) (or (or ?v_98 ?v_98) ?v_174)) (or (or P43 P13) ?v_57)) (or (or ?v_50 ?v_124) ?v_125)) (or (or ?v_105 ?v_126) P34)) (or (or ?v_127 ?v_82) ?v_117)) (or (or ?v_128 ?v_129) ?v_130)) (or (or P42 ?v_47) ?v_36)) (or (or ?v_131 ?v_132) ?v_125)) (or (or ?v_92 ?v_226) ?v_134)) (or (or ?v_135 ?v_178) ?v_154)) (or (or ?v_171 ?v_203) ?v_69)) (or (or ?v_137 ?v_83) ?v_131)) (or (or ?v_138 ?v_139) ?v_5)) (or (or ?v_93 ?v_140) ?v_101)) (or (or ?v_141 ?v_2) ?v_78)) (or (or ?v_18 ?v_229) ?v_53)) (or (or ?v_143 P43) ?v_147)) (or (or ?v_144 ?v_29) P1)) (or (or ?v_145 ?v_146) P10)) (or (or ?v_67 ?v_147) P30)) (or (or ?v_5 ?v_148) ?v_149)) (or (or ?v_198 ?v_114) ?v_150)) (or (or P27 ?v_162) P49)) (or (or ?v_135 P21) ?v_13)) (or (or P6 ?v_117) ?v_92)) (or (or P25 ?v_151) P2)) (or (or ?v_127 ?v_152) ?v_99)) (or (or P39 ?v_63) ?v_156)) (or (or ?v_2 P40) ?v_13)) (or (or ?v_80 ?v_98) ?v_103)) (or (or ?v_153 ?v_154) ?v_37)) (or (or ?v_64 ?v_124) ?v_26)) (or (or ?v_71 ?v_97) P25)) (or (or ?v_246 ?v_184) ?v_89)) (or (or ?v_155 ?v_0) ?v_156)) (or (or ?v_105 ?v_139) ?v_113)) (or (or ?v_121 ?v_69) ?v_99)) (or (or ?v_157 ?v_134) ?v_158)) (or (or ?v_159 ?v_236) ?v_211)) (or (or ?v_186 ?v_160) ?v_128)) (or (or ?v_60 ?v_117) ?v_161)) (or (or ?v_162 ?v_163) ?v_60)) (or (or ?v_132 ?v_125) ?v_53)) (or (or ?v_164 ?v_81) ?v_103)) (or (or ?v_177 ?v_111) ?v_160)) (or (or ?v_165 ?v_99) ?v_166)) (or (or ?v_83 ?v_76) ?v_167)) (or (or P29 ?v_128) P16)) (or (or P40 ?v_168) ?v_169)) (or (or ?v_158 ?v_135) ?v_112)) (or (or ?v_170 ?v_171) ?v_155)) (or (or ?v_141 ?v_212) P19)) (or (or ?v_73 ?v_170) ?v_80)) (or (or P45 ?v_117) P43)) (or (or P8 ?v_40) P4)) (or (or ?v_51 ?v_172) ?v_5)) (or (or P7 ?v_82) P10)) (or (or ?v_173 ?v_174) ?v_170)) (or (or ?v_22 ?v_139) ?v_170)) (or (or ?v_205 ?v_144) ?v_154)) (or (or ?v_15 ?v_175) ?v_174)) (or (or ?v_235 ?v_176) ?v_140)) (or (or ?v_109 ?v_177) ?v_252)) (or (or ?v_168 ?v_29) ?v_179)) (or (or ?v_20 ?v_210) ?v_43)) (or (or ?v_158 ?v_169) ?v_180)) (or (or ?v_115 ?v_34) ?v_82)) (or (or ?v_151 ?v_179) P28)) (or (or ?v_200 ?v_48) P2)) (or (or ?v_182 ?v_8) P1)) (or (or P5 ?v_183) P28)) (or (or ?v_64 P9) ?v_150)) (or (or ?v_184 P3) ?v_125)) (or (or P5 ?v_10) ?v_125)) (or (or ?v_106 ?v_231) ?v_54)) (or (or ?v_185 ?v_37) ?v_186)) (or (or P34 ?v_101) ?v_114)) (or (or ?v_194 ?v_147) ?v_136)) (or (or ?v_5 P35) ?v_170)) (or (or ?v_159 ?v_7) P20)) (or (or ?v_187 ?v_188) ?v_189)) (or (or ?v_190 P14) ?v_191)) (or (or ?v_81 P21) ?v_98)) (or (or ?v_61 ?v_10) ?v_114)) (or (or P3 ?v_12) ?v_100)) (or (or ?v_48 P14) ?v_192)) (or (or ?v_103 ?v_193) ?v_207)) (or (or ?v_149 ?v_25) ?v_121)) (or (or ?v_94 ?v_88) ?v_71)) (or (or P38 ?v_194) ?v_17)) (or (or ?v_129 ?v_192) ?v_245)) (or (or ?v_62 ?v_127) ?v_114)) (or (or P36 P35) P8)) (or (or ?v_122 ?v_195) ?v_145)) (or (or ?v_20 ?v_22) P34)) (or (or ?v_175 ?v_88) P29)) (or (or ?v_196 ?v_197) ?v_198)) (or (or ?v_199 P24) ?v_169)) (or (or ?v_52 ?v_183) ?v_200)) (or (or ?v_116 ?v_201) ?v_202)) (or (or ?v_154 ?v_9) ?v_13)) (or (or ?v_203 P2) P12)) (or (or ?v_43 ?v_119) ?v_204)) (or (or ?v_179 ?v_77) ?v_230)) (or (or ?v_47 ?v_61) P38)) (or (or ?v_103 ?v_150) ?v_33)) (or (or ?v_214 ?v_21) ?v_136)) (or (or ?v_186 ?v_37) ?v_33)) (or (or ?v_7 ?v_209) ?v_50)) (or (or ?v_31 ?v_223) ?v_170)) (or (or ?v_63 P17) P20)) (or (or ?v_12 ?v_158) ?v_138)) (or (or P26 ?v_97) ?v_82)) (or (or ?v_205 ?v_69) ?v_206)) (or (or ?v_86 ?v_184) ?v_32)) (or (or P48 ?v_188) P6)) (or (or ?v_193 ?v_66) ?v_63)) (or (or ?v_61 ?v_126) ?v_12)) (or (or ?v_207 ?v_55) ?v_196)) (or (or ?v_6 ?v_138) ?v_13)) (or (or P28 ?v_208) ?v_188)) (or (or ?v_119 ?v_202) ?v_102)) (or (or P36 ?v_144) ?v_137)) (or (or ?v_187 ?v_18) ?v_38)) (or (or ?v_122 ?v_94) ?v_167)) (or (or ?v_101 ?v_171) ?v_107)) (or (or P44 ?v_188) ?v_164)) (or (or ?v_78 P49) ?v_67)) (or (or ?v_6 ?v_16) ?v_165)) (or (or ?v_7 ?v_147) ?v_31)) (or (or ?v_100 ?v_197) ?v_209)) (or (or ?v_109 ?v_210) ?v_143)) (or (or P32 P11) ?v_74)) (or (or P16 ?v_14) ?v_211)) (or (or P37 P9) ?v_212)) (or (or P14 ?v_100) P1)) (or (or ?v_166 ?v_73) ?v_181)) (or (or ?v_129 ?v_38) ?v_169)) (or (or ?v_163 ?v_48) P39)) (or (or ?v_153 ?v_68) ?v_122)) (or (or ?v_126 ?v_89) P14)) (or (or ?v_102 ?v_170) ?v_58)) (or (or P7 ?v_213) ?v_11)) (or (or ?v_98 ?v_177) ?v_145)) (or (or ?v_84 ?v_200) ?v_179)) (or (or ?v_59 ?v_196) ?v_80)) (or (or ?v_242 ?v_187) P20)) (or (or ?v_160 ?v_6) ?v_7)) (or (or ?v_77 ?v_213) P15)) (or (or ?v_212 ?v_201) ?v_239)) (or (or ?v_5 P20) P13)) (or (or ?v_0 ?v_187) P12)) (or (or ?v_149 ?v_214) P7)) (or (or P31 ?v_114) ?v_112)) (or (or ?v_66 P39) ?v_173)) (or (or ?v_191 ?v_210) ?v_166)) (or (or ?v_215 P12) ?v_115)) (or (or P17 P20) ?v_114)) (or (or ?v_216 P46) ?v_29)) (or (or ?v_217 ?v_106) ?v_70)) (or (or ?v_182 ?v_184) P48)) (or (or ?v_19 ?v_101) ?v_48)) (or (or ?v_122 ?v_8) ?v_54)) (or (or ?v_169 P6) ?v_132)) (or (or P2 ?v_150) ?v_214)) (or (or ?v_104 ?v_115) P15)) (or (or ?v_218 ?v_72) ?v_205)) (or ?v_225 ?v_219)) (or (or ?v_61 ?v_160) ?v_220)) (or (or P36 ?v_114) ?v_43)) (or (or ?v_129 ?v_89) ?v_206)) (or (or ?v_202 P7) P14)) (or (or ?v_7 ?v_94) ?v_221)) (or (or P30 ?v_10) ?v_115)) (or (or ?v_62 P4) ?v_181)) (or (or ?v_151 ?v_108) ?v_46)) (or (or ?v_149 ?v_120) ?v_78)) (or (or ?v_132 ?v_71) ?v_60)) (or (or ?v_207 P28) ?v_222)) (or (or P0 ?v_222) ?v_70)) (or (or ?v_159 ?v_34) ?v_223)) (or (or P26 ?v_224) P22)) (or (or ?v_128 P46) ?v_89)) (or (or ?v_62 P22) ?v_201)) (or (or ?v_218 ?v_152) ?v_9)) (or ?v_225 ?v_154)) (or (or ?v_125 ?v_222) ?v_81)) (or (or P32 P9) ?v_221)) (or (or ?v_226 ?v_227) ?v_220)) (or (or ?v_147 P43) ?v_228)) (or (or ?v_204 ?v_106) ?v_100)) (or (or P26 ?v_80) ?v_89)) (or (or ?v_229 P33) ?v_129)) (or (or ?v_64 ?v_64) P40)) (or (or ?v_230 ?v_202) P42)) (or (or P15 ?v_171) ?v_151)) (or (or ?v_187 ?v_104) ?v_166)) (or (or ?v_238 ?v_59) P31)) (or (or P42 ?v_187) ?v_121)) (or (or P15 ?v_196) ?v_100)) (or (or ?v_196 ?v_203) ?v_154)) (or (or (not ?v_168) ?v_14) ?v_206)) (or (or ?v_224 P5) P39)) (or (or P10 ?v_231) ?v_108)) (or (or ?v_19 ?v_137) ?v_188)) (or (or ?v_140 ?v_203) ?v_88)) (or (or ?v_94 ?v_175) ?v_173)) (or (or ?v_122 ?v_17) ?v_6)) (or (or ?v_126 ?v_247) ?v_2)) (or (or P11 ?v_232) P5)) (or (or ?v_259 ?v_92) ?v_68)) (or (or ?v_111 ?v_216) ?v_233)) (or (or ?v_187 ?v_6) P48)) (or (or ?v_10 ?v_34) P47)) (or (or ?v_152 ?v_167) ?v_205)) (or (or P13 ?v_21) P11)) (or (or ?v_150 ?v_102) ?v_156)) (or (or ?v_193 ?v_127) ?v_36)) (or (or ?v_13 P32) ?v_113)) (or (or P26 P13) ?v_234)) (or (or ?v_212 ?v_137) ?v_121)) (or (or P39 ?v_121) ?v_181)) (or (or ?v_79 ?v_91) ?v_176)) (or (or ?v_231 ?v_203) ?v_7)) (or (or ?v_234 ?v_95) ?v_155)) (or (or ?v_102 ?v_89) ?v_103)) (or (or P22 ?v_50) ?v_235)) (or (or ?v_150 P25) P41)) (or (or ?v_167 ?v_36) ?v_143)) (or (or ?v_69 ?v_110) ?v_116)) (or (or ?v_9 ?v_236) ?v_15)) (or (or P9 ?v_167) ?v_182)) (or (or P2 ?v_190) ?v_145)) (or (or ?v_53 ?v_29) ?v_237)) (or (or ?v_47 ?v_238) ?v_61)) (or (or ?v_191 ?v_165) ?v_51)) (or (or ?v_69 ?v_221) ?v_124)) (or (or ?v_35 ?v_177) ?v_76)) (or (or ?v_19 ?v_239) ?v_106)) (or (or ?v_43 ?v_205) ?v_55)) (or (or ?v_130 ?v_16) ?v_71)) (or (or ?v_217 ?v_227) P35)) (or (or ?v_160 ?v_166) ?v_100)) (or (or ?v_151 P37) ?v_43)) (or (or ?v_59 ?v_140) ?v_185)) (or (or ?v_152 ?v_226) ?v_73)) (or (or ?v_183 ?v_239) ?v_236)) (or (or P27 ?v_188) ?v_20)) (or (or ?v_190 ?v_124) ?v_240)) (or (or ?v_239 ?v_232) ?v_140)) (or (or ?v_220 ?v_119) ?v_60)) (or (or ?v_24 ?v_125) ?v_168)) (or (or ?v_167 ?v_169) ?v_180)) (or (or ?v_174 ?v_222) ?v_112)) (or (or P49 P47) ?v_184)) (or (or ?v_106 ?v_59) P31)) (or (or P43 ?v_241) ?v_242)) (or (or ?v_65 ?v_79) ?v_185)) (or (or ?v_103 ?v_58) ?v_243)) (or (or ?v_203 ?v_89) ?v_104)) (or (or ?v_210 ?v_155) ?v_0)) (or (or ?v_244 ?v_223) ?v_73)) (or (or P42 ?v_99) ?v_194)) (or (or P9 ?v_64) ?v_175)) (or (or P0 P41) P1)) (or (or ?v_220 ?v_16) ?v_232)) (or (or ?v_158 ?v_115) ?v_111)) (or (or ?v_71 ?v_95) P39)) (or (or ?v_182 ?v_192) P19)) (or (or P42 ?v_120) ?v_88)) (or (or ?v_26 ?v_159) ?v_244)) (or (or ?v_171 ?v_200) ?v_158)) (or (or ?v_102 ?v_166) ?v_20)) (or (or ?v_102 ?v_52) ?v_242)) (or (or ?v_152 ?v_8) ?v_117)) (or (or ?v_197 ?v_149) ?v_245)) (or (or ?v_228 ?v_52) P2)) (or (or ?v_141 P49) ?v_157)) (or (or ?v_80 ?v_37) ?v_254)) (or (or ?v_203 ?v_183) ?v_246)) (or (or P38 ?v_231) ?v_1)) (or (or ?v_109 ?v_157) ?v_216)) (or (or ?v_80 ?v_149) P25)) (or (or P19 ?v_195) P3)) (or (or ?v_100 ?v_215) ?v_31)) (or (or ?v_62 ?v_232) ?v_37)) (or (or ?v_82 P17) ?v_60)) (or (or P33 ?v_175) ?v_195)) (or (or ?v_99 ?v_40) P38)) (or (or ?v_166 ?v_101) ?v_104)) (or (or ?v_55 P25) ?v_158)) (or (or ?v_42 ?v_20) P42)) (or (or ?v_179 ?v_247) P21)) (or (or ?v_95 ?v_153) ?v_81)) (or (or P9 ?v_140) ?v_218)) (or (or P48 ?v_213) ?v_240)) (or (or ?v_21 ?v_128) ?v_232)) (or (or ?v_221 ?v_67) ?v_119)) (or (or ?v_79 ?v_134) ?v_82)) (or (or ?v_74 ?v_235) ?v_156)) (or (or P26 ?v_176) ?v_153)) (or (or ?v_194 ?v_248) ?v_177)) (or (or ?v_129 ?v_172) P3)) (or (or P12 ?v_61) ?v_239)) (or (or ?v_111 ?v_140) ?v_241)) (or (or ?v_118 P27) ?v_163)) (or (or ?v_147 ?v_226) P0)) (or (or ?v_95 ?v_115) ?v_70)) (or (or ?v_85 P5) P29)) (or (or ?v_208 ?v_143) ?v_47)) (or (or ?v_197 ?v_242) P3)) (or (or ?v_108 ?v_178) ?v_122)) (or (or P7 ?v_94) ?v_16)) (or (or ?v_70 ?v_129) ?v_105)) (or (or ?v_69 ?v_198) P36)) (or (or ?v_211 ?v_168) ?v_144)) (or (or ?v_113 ?v_181) ?v_53)) (or (or P36 ?v_229) ?v_173)) (or (or ?v_178 P48) ?v_32)) (or (or ?v_37 ?v_216) P40)) (or (or ?v_205 ?v_81) ?v_132)) (or (or P47 ?v_237) ?v_202)) (or (or P43 ?v_92) ?v_157)) (or (or ?v_151 ?v_129) P28)) (or (or P20 ?v_88) ?v_64)) (or (or P6 ?v_247) ?v_109)) (or (or ?v_124 ?v_132) ?v_55)) (or (or P10 P39) ?v_246)) (or (or ?v_226 ?v_153) ?v_163)) (or (or ?v_144 ?v_128) P31)) (or (or ?v_165 ?v_251) ?v_174)) (or (or ?v_250 P15) ?v_87)) (or (or ?v_207 ?v_208) P46)) (or (or ?v_191 ?v_108) P48)) (or (or P49 ?v_227) P8)) (or (or ?v_40 P19) ?v_247)) (or (or ?v_133 ?v_178) ?v_181)) (or (or P47 P15) P43)) (or (or ?v_10 ?v_180) ?v_6)) (or (or ?v_172 P26) ?v_106)) (or (or P16 P42) ?v_182)) (or (or ?v_40 ?v_150) ?v_0)) (or (or ?v_140 ?v_175) ?v_230)) (or (or ?v_133 ?v_132) ?v_123)) (or (or ?v_144 P15) ?v_113)) (or (or P9 ?v_157) ?v_94)) (or (or ?v_103 P36) ?v_193)) (or (or P12 ?v_201) ?v_83)) (or (or ?v_101 ?v_151) ?v_158)) (or (or ?v_48 P16) ?v_251)) (or (or ?v_65 ?v_14) ?v_215)) (or (or ?v_208 ?v_226) ?v_176)) (or (or P30 P4) P45)) (or (or P15 P39) ?v_155)) (or (or ?v_175 P25) ?v_236)) (or (or ?v_68 P37) ?v_168)) (or (or ?v_244 ?v_202) ?v_236)) (or (or P21 P27) ?v_137)) (or (or ?v_136 ?v_204) ?v_140)) (or (or ?v_17 ?v_207) ?v_1)) (or (or ?v_111 P16) ?v_145)) (or (or P46 P17) ?v_139)) (or (or ?v_167 ?v_213) ?v_252)) (or (or ?v_185 P33) ?v_106)) (or (or ?v_63 ?v_247) P28)) (or (or ?v_178 P16) P12)) (or (or ?v_190 ?v_183) ?v_102)) (or (or ?v_85 ?v_65) ?v_113)) (or (or ?v_176 ?v_243) ?v_224)) (or (or ?v_84 ?v_132) P23)) (or (or P7 ?v_253) P40)) (or (or ?v_155 P27) ?v_158)) (or (or ?v_198 ?v_197) ?v_139)) (or (or ?v_15 ?v_255) ?v_165)) (or (or ?v_244 ?v_132) ?v_36)) (or (or P21 ?v_19) ?v_164)) (or (or ?v_236 ?v_65) ?v_139)) (or (or ?v_240 ?v_250) ?v_180)) (or (or ?v_71 ?v_34) ?v_155)) (or (or ?v_182 ?v_222) ?v_162)) (or (or ?v_111 ?v_26) ?v_167)) (or (or ?v_57 ?v_94) ?v_230)) (or (or ?v_127 ?v_159) ?v_12)) (or (or ?v_207 ?v_81) ?v_43)) (or (or P21 ?v_72) ?v_164)) (or (or ?v_0 P47) ?v_38)) (or (or ?v_48 P23) ?v_254)) (or (or ?v_12 P38) P45)) (or (or ?v_134 ?v_164) ?v_70)) (or (or ?v_250 ?v_89) ?v_15)) (or (or ?v_136 ?v_128) ?v_178)) (or (or ?v_209 ?v_247) P38)) (or (or ?v_188 ?v_53) ?v_227)) (or (or ?v_219 ?v_212) ?v_6)) (or (or P34 ?v_94) ?v_240)) (or (or ?v_157 ?v_32) ?v_40)) (or (or ?v_43 P25) ?v_230)) (or (or P42 ?v_73) ?v_228)) (or (or P11 P10) ?v_130)) (or (or ?v_123 ?v_109) ?v_178)) (or (or ?v_234 ?v_234) ?v_53)) (or (or ?v_181 P26) ?v_131)) (or (or P13 P1) P11)) (or (or ?v_48 ?v_207) ?v_119)) (or (or ?v_52 ?v_227) ?v_89)) (or (or ?v_163 ?v_89) P47)) (or (or ?v_21 P24) ?v_257)) (or (or ?v_235 ?v_214) P40)) (or (or ?v_36 ?v_241) ?v_135)) (or (or P0 ?v_255) P3)) (or (or ?v_247 ?v_213) ?v_197)) (or ?v_256 ?v_165)) (or (or P48 ?v_186) ?v_90)) (or (or ?v_157 ?v_150) ?v_224)) (or (or P23 ?v_75) ?v_212)) (or (or ?v_140 ?v_181) ?v_240)) (or (or ?v_180 ?v_251) ?v_252)) (or (or P24 ?v_181) ?v_237)) (or (or ?v_147 ?v_92) ?v_86)) (or (or ?v_140 ?v_215) P43)) (or (or ?v_166 ?v_222) ?v_235)) (or (or ?v_113 ?v_144) ?v_174)) (or (or ?v_55 ?v_76) P39)) (or (or ?v_140 ?v_73) ?v_31)) (or (or P5 ?v_247) ?v_257)) (or (or ?v_152 ?v_16) ?v_162)) (or (or ?v_248 ?v_132) ?v_37)) (or ?v_258 ?v_40)) (or (or ?v_60 P41) ?v_182)) (or (or P30 P28) ?v_157)) (or (or ?v_129 ?v_205) ?v_198)) (or (or ?v_234 ?v_185) ?v_16)) (or (or ?v_81 ?v_100) ?v_37)) (or (or ?v_198 ?v_119) ?v_53)) (or (or ?v_168 ?v_22) ?v_112)) (or (or ?v_106 ?v_172) ?v_65)) (or (or ?v_100 ?v_214) ?v_171)) (or (or ?v_74 ?v_248) ?v_146)) (or (or ?v_10 ?v_196) ?v_200)) (or (or ?v_55 (not P29)) P36)) (or (or ?v_203 ?v_78) ?v_149)) (or (or ?v_123 ?v_251) ?v_128)) (or (or P12 P34) P4)) (or (or ?v_219 ?v_16) ?v_29)) (or (or ?v_130 ?v_103) ?v_234)) (or (or ?v_131 ?v_217) P46)) (or (or ?v_193 ?v_95) ?v_179)) (or (or ?v_216 ?v_227) ?v_28)) (or (or P9 ?v_246) ?v_194)) (or (or ?v_70 ?v_5) P9)) (or (or ?v_204 ?v_159) ?v_148)) (or (or P5 ?v_86) ?v_120)) (or (or ?v_178 ?v_77) ?v_99)) (or (or P45 ?v_140) ?v_67)) (or (or ?v_190 P16) ?v_170)) (or (or P26 ?v_13) ?v_181)) (or (or ?v_165 ?v_239) ?v_253)) (or (or ?v_131 ?v_198) P41)) (or (or ?v_235 ?v_91) ?v_237)) (or (or ?v_185 ?v_77) ?v_259)) (or (or ?v_36 ?v_76) ?v_233)) (or (or ?v_177 ?v_55) ?v_57)) (or (or ?v_162 ?v_40) ?v_181)) (or (or ?v_38 ?v_243) ?v_148)) (or (or ?v_147 ?v_202) ?v_35)) (or (or P4 P5) ?v_210)) (or (or ?v_34 ?v_9) ?v_11)) (or (or P0 ?v_53) ?v_204)) (or (or P42 ?v_33) ?v_244)) (or (or P8 P45) P1)) (or (or P16 P44) ?v_151)) (or (or P4 ?v_141) ?v_167)) (or (or P27 ?v_25) ?v_42)) (or (or P10 ?v_134) ?v_122)) (or (or ?v_109 ?v_126) ?v_69)) (or (or ?v_95 P6) P10)) (or (or ?v_150 ?v_8) ?v_193)) (or (or ?v_218 ?v_164) ?v_119)) (or (or ?v_131 ?v_175) ?v_115))))))))))))))))))))))))))))))))))))))
(check-sat)
(exit)
